s td 91 8 98
b 1 13 14
b 2 85 86
b 3 1 2 16
b 4 2 3 16
b 5 3 4 5
b 6 5 6 7
b 7 7 8 9
b 8 9 10 11
b 9 11 12 13
b 10 11 13 28
b 11 15 16 30
b 12 11 27 28
b 13 29 30 44
b 14 27 41 42
b 15 43 44 58
b 16 41 55 56
b 17 57 58 72
b 18 55 69 70
b 19 71 72 86
b 20 69 83 84
b 21 72 86 87
b 22 72 87 88
b 23 88 89 90
b 24 90 91 92
b 25 92 93 94
b 26 94 95 96
b 27 96 97 98
b 28 83 96 98
b 29 9 11 26 27
b 30 3 5 19 35 51 64 80 96
b 31 5 19 35 51 64 67 80 96
b 32 5 19 35 51 67 80 83 96
b 33 5 19 35 51 67 69 83
b 34 5 19 35 51 53 67 69
b 35 5 19 21 35 51 53 69
b 36 5 21 35 38 51 53 69
b 37 5 21 38 53 55 69
b 38 5 21 38 40 53 55
b 39 5 21 23 38 40 55
b 40 5 9 21 23 40 55
b 41 5 7 9 21 23
b 42 7 21 22 23
b 43 9 23 27 40 55
b 44 9 23 25 27 40
b 45 9 23 24 25
b 46 9 25 26 27
b 47 27 40 41 55
b 48 38 39 40 53 55
b 49 39 53 54 55
b 50 21 35 38 51 52 53
b 51 21 35 37 38 52
b 52 21 35 36 37
b 53 5 19 20 21
b 54 53 67 68 69
b 55 67 80 82 83 96
b 56 80 81 82 96
b 57 51 64 66 67 80
b 58 64 65 66 80
b 59 3 19 35 48 51 64 80 96
b 60 3 19 32 35 48 64 80 96
b 61 3 19 30 32 48 64 80 96
b 62 3 17 19 30 32
b 63 3 16 17 30
b 64 3 17 18 19
b 65 30 32 46 48 64 80 96
b 66 30 31 32 46
b 67 30 46 48 62 64 80 96
b 68 30 46 62 64 78 80 96
b 69 30 46 62 78 80 92 96
b 70 30 46 62 76 78 92
b 71 30 46 60 62 76 92
b 72 30 46 58 60 76 92
b 73 30 45 46 58 60
b 74 30 44 45 58
b 75 58 60 74 76 92
b 76 58 59 60 74
b 77 58 74 76 90 92
b 78 58 74 88 90
b 79 58 73 74 88
b 80 74 75 76 90
b 81 60 61 62 76
b 82 76 77 78 92
b 83 78 80 92 94 96
b 84 78 79 80 94
b 85 62 63 64 78
b 86 46 47 48 62
b 87 19 32 33 35 48
b 88 19 33 34 35
b 89 35 48 50 51 64
b 90 48 49 50 64
b 91 58 72 73 88
1 10
2 21
3 4
4 63
5 30
6 41
7 41
8 29
9 10
10 12
11 63
12 29
13 74
14 47
15 74
16 47
17 91
18 37
19 21
20 33
21 22
22 91
23 78
24 77
25 83
26 83
27 28
28 32
29 46
30 31
30 59
31 32
31 57
32 33
32 55
33 34
34 35
34 54
35 36
35 53
36 37
36 50
37 38
38 39
38 48
39 40
40 41
40 43
41 42
43 44
43 47
44 45
44 46
48 49
50 51
51 52
55 56
57 58
59 60
59 89
60 61
60 87
61 62
61 65
62 63
62 64
65 66
65 67
67 68
67 86
68 69
68 85
69 70
69 83
70 71
70 82
71 72
71 81
72 73
72 75
73 74
75 76
75 77
77 78
77 80
78 79
79 91
83 84
87 88
89 90
